words_hard_train/6578.qaiger
aag 125 24 0 1 101
2
4
12
20
22
28
32
36
40
50
52
56
58
70
72
84
86
98
100
112
114
126
128
218
250
6 3 4
8 2 5
10 7 9
14 10 13
16 11 12
18 15 17
24 20 23
26 25 23
30 26 29
34 30 33
38 34 37
42 38 41
44 19 42
46 18 43
48 45 47
54 50 52
60 57 59
62 56 58
64 61 63
66 54 64
68 67 63
74 71 73
76 70 72
78 75 77
80 69 78
82 81 77
88 85 87
90 84 86
92 89 91
94 83 92
96 95 91
102 99 101
104 98 100
106 103 105
108 97 106
110 109 105
116 113 115
118 112 114
120 117 119
122 111 120
124 123 119
130 127 129
132 126 128
134 131 133
136 125 134
138 137 133
140 48 139
142 49 138
144 141 143
146 35 36
148 147 39
150 110 121
152 151 123
154 149 153
156 148 152
158 155 157
160 39 40
162 161 43
164 124 135
166 165 137
168 163 167
170 158 169
172 31 32
174 173 35
176 96 107
178 177 109
180 175 179
182 174 178
184 181 183
186 27 28
188 187 31
190 82 93
192 191 95
194 189 193
196 188 192
198 195 197
200 68 79
202 201 81
204 21 22
206 205 25
208 203 206
210 202 207
212 209 211
214 51 53
216 215 55
220 217 219
222 216 218
224 221 223
226 55 65
228 227 67
230 229 21
232 228 20
234 231 233
236 225 234
238 212 236
240 198 238
242 184 240
244 162 166
246 242 245
248 170 246
250 144 248
i0 1 x2[7]
i1 1 x1[7]
i2 2 y1[7]
i3 2 y1[1]
i4 2 y1[2]
i5 2 y1[3]
i6 2 y1[4]
i7 2 y1[5]
i8 2 y1[6]
i9 1 x2[0]
i10 1 x1[0]
i11 1 x2[1]
i12 1 x1[1]
i13 1 x2[2]
i14 1 x1[2]
i15 1 x2[3]
i16 1 x1[3]
i17 1 x2[4]
i18 1 x1[4]
i19 1 x2[5]
i20 1 x1[5]
i21 1 x2[6]
i22 1 x1[6]
i23 2 y1[0]
o0 bool[0]
c
simplified
  ==
    add
      invert
        1
      2 y1
    add
      1 x2
      1 x1
