words_hard_train/6578.qaiger.qdimacs
p cnf 125 304
a 64 1 2 35 36 42 43 49 50 63 56 25 26 28 29 57 0
e 3 4 5 6 7 8 9 10 11 12 13 14 15 16 17 18 19 20 21 22 23 24 27 30 31 32 33 34 37 38 39 40 41 44 45 46 47 48 51 52 53 54 55 58 59 60 61 62 65 66 67 68 69 70 71 72 73 74 75 76 77 78 79 80 81 82 83 84 85 86 87 88 89 90 91 92 93 94 95 96 97 98 99 100 101 102 103 104 105 106 107 108 109 110 111 112 113 114 115 116 117 118 119 120 121 122 123 124 125 0
1 -2 3 0
-1 -3 0
2 -3 0
-1 2 4 0
1 -4 0
-2 -4 0
3 4 5 0
-3 -5 0
-4 -5 0
-5 6 7 0
5 -7 0
-6 -7 0
5 -6 8 0
-5 -8 0
6 -8 0
7 8 9 0
-7 -9 0
-8 -9 0
-10 11 12 0
10 -12 0
-11 -12 0
12 11 13 0
-12 -13 0
-11 -13 0
-13 14 15 0
13 -15 0
-14 -15 0
-15 16 17 0
15 -17 0
-16 -17 0
-17 18 19 0
17 -19 0
-18 -19 0
-19 20 21 0
19 -21 0
-20 -21 0
9 -21 22 0
-9 -22 0
21 -22 0
-9 21 23 0
9 -23 0
-21 -23 0
22 23 24 0
-22 -24 0
-23 -24 0
-25 -26 27 0
25 -27 0
26 -27 0
28 29 30 0
-28 -30 0
-29 -30 0
-28 -29 31 0
28 -31 0
29 -31 0
30 31 32 0
-30 -32 0
-31 -32 0
-27 -32 33 0
27 -33 0
32 -33 0
33 31 34 0
-33 -34 0
-31 -34 0
35 36 37 0
-35 -37 0
-36 -37 0
-35 -36 38 0
35 -38 0
36 -38 0
37 38 39 0
-37 -39 0
-38 -39 0
34 -39 40 0
-34 -40 0
39 -40 0
40 38 41 0
-40 -41 0
-38 -41 0
42 43 44 0
-42 -44 0
-43 -44 0
-42 -43 45 0
42 -45 0
43 -45 0
44 45 46 0
-44 -46 0
-45 -46 0
41 -46 47 0
-41 -47 0
46 -47 0
47 45 48 0
-47 -48 0
-45 -48 0
49 50 51 0
-49 -51 0
-50 -51 0
-49 -50 52 0
49 -52 0
50 -52 0
51 52 53 0
-51 -53 0
-52 -53 0
48 -53 54 0
-48 -54 0
53 -54 0
54 52 55 0
-54 -55 0
-52 -55 0
56 57 58 0
-56 -58 0
-57 -58 0
-56 -57 59 0
56 -59 0
57 -59 0
58 59 60 0
-58 -60 0
-59 -60 0
55 -60 61 0
-55 -61 0
60 -61 0
61 59 62 0
-61 -62 0
-59 -62 0
63 64 65 0
-63 -65 0
-64 -65 0
-63 -64 66 0
63 -66 0
64 -66 0
65 66 67 0
-65 -67 0
-66 -67 0
62 -67 68 0
-62 -68 0
67 -68 0
68 66 69 0
-68 -69 0
-66 -69 0
-24 69 70 0
24 -70 0
-69 -70 0
24 -69 71 0
-24 -71 0
69 -71 0
70 71 72 0
-70 -72 0
-71 -72 0
17 -18 73 0
-17 -73 0
18 -73 0
73 19 74 0
-73 -74 0
-19 -74 0
-55 60 75 0
55 -75 0
-60 -75 0
75 61 76 0
-75 -76 0
-61 -76 0
74 76 77 0
-74 -77 0
-76 -77 0
-74 -76 78 0
74 -78 0
76 -78 0
77 78 79 0
-77 -79 0
-78 -79 0
19 -20 80 0
-19 -80 0
20 -80 0
80 21 81 0
-80 -81 0
-21 -81 0
-62 67 82 0
62 -82 0
-67 -82 0
82 68 83 0
-82 -83 0
-68 -83 0
81 83 84 0
-81 -84 0
-83 -84 0
-79 84 85 0
79 -85 0
-84 -85 0
15 -16 86 0
-15 -86 0
16 -86 0
86 17 87 0
-86 -87 0
-17 -87 0
-48 53 88 0
48 -88 0
-53 -88 0
88 54 89 0
-88 -89 0
-54 -89 0
87 89 90 0
-87 -90 0
-89 -90 0
-87 -89 91 0
87 -91 0
89 -91 0
90 91 92 0
-90 -92 0
-91 -92 0
13 -14 93 0
-13 -93 0
14 -93 0
93 15 94 0
-93 -94 0
-15 -94 0
-41 46 95 0
41 -95 0
-46 -95 0
95 47 96 0
-95 -96 0
-47 -96 0
94 96 97 0
-94 -97 0
-96 -97 0
-94 -96 98 0
94 -98 0
96 -98 0
97 98 99 0
-97 -99 0
-98 -99 0
-34 39 100 0
34 -100 0
-39 -100 0
100 40 101 0
-100 -101 0
-40 -101 0
10 -11 102 0
-10 -102 0
11 -102 0
102 12 103 0
-102 -103 0
-12 -103 0
101 -103 104 0
-101 -104 0
103 -104 0
-101 103 105 0
101 -105 0
-103 -105 0
104 105 106 0
-104 -106 0
-105 -106 0
25 26 107 0
-25 -107 0
-26 -107 0
107 27 108 0
-107 -108 0
-27 -108 0
108 109 110 0
-108 -110 0
-109 -110 0
-108 -109 111 0
108 -111 0
109 -111 0
110 111 112 0
-110 -112 0
-111 -112 0
27 32 113 0
-27 -113 0
-32 -113 0
113 33 114 0
-113 -114 0
-33 -114 0
114 10 115 0
-114 -115 0
-10 -115 0
-114 -10 116 0
114 -116 0
10 -116 0
115 116 117 0
-115 -117 0
-116 -117 0
112 -117 118 0
-112 -118 0
117 -118 0
-106 -118 119 0
106 -119 0
118 -119 0
-99 -119 120 0
99 -120 0
119 -120 0
-92 -120 121 0
92 -121 0
120 -121 0
-81 -83 122 0
81 -122 0
83 -122 0
-121 122 123 0
121 -123 0
-122 -123 0
-85 -123 124 0
85 -124 0
123 -124 0
-72 -124 125 0
72 -125 0
124 -125 0
125 0
